NAME lp_typeD_989
OBJSENSE MAX
ROWS
 N  OBJ
 L  c0      
 L  c1      
 G  c2      
 G  c3      
 L  c_key_upper
 G  c_key_lower
 G  _chain_constr_1
 G  _chain_constr_2
 G  _chain_constr_3
 G  _chain_cycle
COLUMNS
    x0        OBJ       1.1853066636935314e+00
    x0        c0        1.8655714848160234e+00
    x0        c1        1.6652425540679316e+00
    x0        c2        8.4507579568786573e-01
    x0        c3        1.5262637353862325e+00
    x0        c_key_upper  1.8747732238224082e+00
    x0        c_key_lower  1.8747732238224082e+00
    x1        OBJ       1.1641292230237956e+00
    x1        c0        1.5842241287481234e+00
    x1        c1        9.2371725397755367e-01
    x1        c2        6.4537130975252788e-01
    x1        c3        1.1304947635691398e+00
    x1        c_key_upper  1.0658659755044051e+00
    x1        c_key_lower  1.0658659755044051e+00
    x2        OBJ       5.5240963377867580e-01
    x2        c0        1.6610809413396943e+00
    x2        c1        1.1587451955593928e+00
    x2        c2        1.1021144990244767e+00
    x2        c3        1.1899727162632681e+00
    x2        c_key_upper  1.5749435434403394e+00
    x2        c_key_lower  1.5749435434403394e+00
    x3        OBJ       1.4001326619912979e+00
    x3        c0        1.3791450721006264e+00
    x3        c1        1.8095621086579674e+00
    x3        c2        8.6206018129468709e-01
    x3        c3        1.0888416742813523e+00
    x3        c_key_upper  1.1772085578680758e+00
    x3        c_key_lower  1.1772085578680758e+00
    x4        OBJ       1.1881404285808350e+00
    x4        c0        7.9733090645906279e-01
    x4        c1        0.968209698314767
    x4        c2        5.7004906645380193e-01
    x4        c3        1.5781271862820172e+00
    x4        c_key_upper  1.6791543543258334e+00
    x4        c_key_lower  1.6791543543258334e+00
    x5        OBJ       9.9233156639897757e-01
    x5        c0        1.6978987639406629e+00
    x5        c1        1.4564415893438407e+00
    x5        c2        6.8106332856746121e-01
    x5        c3        0.709714340241133
    x5        c_key_upper  1.1905850841467247e+00
    x5        c_key_lower  1.1905850841467247e+00
    x6        OBJ       1.4245957473789899e+00
    x6        c0        1.5179772926322559e+00
    x6        c1        9.4426471565877268e-01
    x6        c2        9.8842862521799724e-01
    x6        c3        1.4345753754432249e+00
    x6        c_key_upper  1.6461125839694228e+00
    x6        c_key_lower  1.6461125839694228e+00
    _chain_var_0  _chain_constr_1  -1
    _chain_var_0  _chain_cycle  1
    _chain_var_1  _chain_constr_1  1
    _chain_var_1  _chain_constr_2  -1
    _chain_var_2  _chain_constr_2  1
    _chain_var_2  _chain_constr_3  -1
    _chain_var_3  _chain_constr_3  1
    _chain_var_3  _chain_cycle  -1
RHS
    RHS1      c0        4.7366876959035672e+01
    RHS1      c1        5.2773788933995689e+01
    RHS1      c2        9.7738598807851211e+00
    RHS1      c3        1.5566084011791629e+01
    RHS1      c_key_upper  5.1043216615386044e+01
    RHS1      c_key_lower  2.5521608307693022e+01
    RHS1      _chain_constr_1  10
    RHS1      _chain_constr_2  10
    RHS1      _chain_constr_3  10
    RHS1      _chain_cycle  10
BOUNDS
 UP BND1      x0        10
 UP BND1      x1        10
 UP BND1      x2        10
 UP BND1      x3        10
 UP BND1      x4        10
 UP BND1      x5        10
 UP BND1      x6        10
 UP BND1      _chain_var_0  100
 UP BND1      _chain_var_1  100
 UP BND1      _chain_var_2  100
 UP BND1      _chain_var_3  100
ENDATA
